data;

set bondName := A B C D;
#set bondType := Muni Ag G G;
set govAndAg := B C D;

param numberBonds :=5;

param yearsToMaturity :=
A		9
B		15
C		4
D		3;

param afterTaxYield :=
A		0.043
B		0.027
C		0.025
D		0.022;

param qualityControl :=
A		2
B		2
C		1
D		1;

param beforeTaxYield :=
A		0.043
B		0.054
C		0.05	
D		0.044;